c   #vars: 126   #clauses: 561   #literals: 1506
c 
p cnf 126 561
-1 -2 0
-3 -4 0
-5 -6 0
-7 -8 0
-9 -10 0
-11 -12 0
-13 -14 0
23 86 87 -98 0
-17 -18 0
-19 -20 0
-21 -22 0
50 51 54 -84 0
-24 -25 0
-26 -27 0
-28 -29 0
-30 -31 0
-32 -33 0
54 74 75 -84 0
-34 -35 0
-36 -37 0
-38 -39 0
-40 -41 0
-42 -43 0
-44 -45 0
-46 -47 0
-48 -49 0
88 89 125 126 0
19 20 125 126 0
-50 -51 0
-52 -53 0
65 -84 -101 116 0
59 60 65 -116 0
-55 -56 0
-57 -58 0
-59 -60 0
-61 -62 0
-63 -64 0
38 39 -72 115 0
-66 -67 0
-68 -69 0
-70 -71 0
-72 -73 0
-74 -75 0
-76 -77 0
-78 -79 0
-80 -81 0
-82 -83 0
-84 -85 0
-86 -87 0
-88 -89 0
-90 -91 0
88 89 98 99 0
59 60 90 91 0
-92 -93 0
-94 -95 0
-96 -97 0
-98 -99 0
-100 -101 0
-103 -104 0
-105 -106 0
38 39 42 43 0
42 43 100 101 0
-107 -108 0
-109 -110 0
-111 -112 0
-113 -114 0
-65 84 85 116 0
65 100 101 -116 0
-21 84 85 116 0
-117 -118 0
-119 -120 0
3 4 21 22 0
-121 -122 0
13 14 88 89 0
-123 -124 0
52 53 55 56 0
-125 -126 0
19 20 123 124 0
50 51 54 -74 0
-2 -23 0
11 12 84 85 0
-1 -46 0
-2 -47 0
44 45 82 83 0
-1 -80 0
-2 -81 0
26 27 32 33 0
-1 -82 0
-2 -83 0
16 -80 90 91 0
-3 -11 0
-4 -12 0
-3 -21 0
-4 -22 0
5 6 113 114 0
-3 -74 0
-4 -75 0
5 6 107 108 0
-3 -88 0
-4 -89 0
34 35 105 106 0
-3 -125 0
-4 -126 0
7 8 63 64 0
-5 -42 0
-6 -43 0
7 8 30 31 0
-5 -72 0
-6 -73 0
105 106 109 110 0
-5 -86 0
-6 -87 0
36 37 113 114 0
-5 -107 0
-6 -108 0
107 108 119 120 0
-5 -113 0
-6 -114 0
9 10 52 53 0
16 -50 90 91 0
-7 -30 0
-8 -31 0
28 29 42 43 0
-7 -40 0
-8 -41 0
63 64 66 67 0
-7 -63 0
-8 -64 0
-17 72 73 115 0
-7 -94 0
-8 -95 0
46 47 94 95 0
-7 -103 0
-8 -104 0
28 29 121 122 0
-9 -52 0
-10 -53 0
28 29 70 71 0
-9 -57 0
-10 -58 0
28 29 66 67 0
-9 -74 0
-10 -75 0
76 77 82 83 0
-9 -98 0
-10 -99 0
15 74 75 -86 0
-9 -111 0
-10 -112 0
57 58 76 77 0
-11 -24 0
-12 -25 0
9 10 74 75 0
-11 -84 0
-12 -85 0
80 81 111 112 0
-11 -113 0
-12 -114 0
-13 -42 0
-14 -43 0
13 14 42 43 0
-13 -61 0
-14 -62 0
-13 -66 0
-14 -67 0
17 18 70 71 0
-13 -68 0
-14 -69 0
30 31 90 91 0
-13 -88 0
-14 -89 0
17 18 36 37 0
42 43 -48 102 0
15 86 87 -96 0
78 79 100 101 0
-1 23 86 87 0
-15 -75 0
40 41 111 112 0
1 2 23 -98 0
-15 -87 0
59 60 65 -101 0
1 2 23 -86 0
-15 -97 0
50 51 82 83 0
16 50 51 -90 0
21 22 -84 116 0
-16 -51 0
21 22 -65 116 0
-16 -81 0
5 6 42 43 0
-16 -91 0
-17 -21 0
-18 -22 0
96 97 100 101 0
-17 -30 0
-18 -31 0
3 4 125 126 0
-17 -36 0
-18 -37 0
72 73 105 106 0
-17 -61 0
-18 -62 0
38 39 96 97 0
-17 -70 0
-18 -71 0
-18 -115 0
-19 -24 0
-20 -25 0
78 79 94 95 0
-19 -61 0
-20 -62 0
-48 102 117 118 0
-19 -78 0
-20 -79 0
19 20 24 25 0
-19 -96 0
-20 -97 0
13 14 66 67 0
-19 -123 0
-20 -124 0
24 25 117 118 0
-19 -125 0
-20 -126 0
7 8 94 95 0
-21 -38 0
-22 -39 0
1 2 82 83 0
42 43 96 97 0
-22 -116 0
86 87 94 95 0
54 -74 84 85 0
-23 -87 0
-50 54 84 85 0
-23 -99 0
3 4 88 89 0
-24 -50 0
-25 -51 0
32 33 70 71 0
66 67 92 93 0
-24 -90 0
-25 -91 0
119 120 123 124 0
-24 -117 0
-25 -118 0
36 37 82 83 0
-26 -32 0
-27 -33 0
82 83 98 99 0
-26 -48 0
-27 -49 0
19 20 61 62 0
-26 -92 0
-27 -93 0
-38 72 73 115 0
-26 -117 0
-27 -118 0
-28 -40 0
-29 -41 0
48 49 76 77 0
-28 -42 0
-29 -43 0
96 97 107 108 0
-28 -66 0
-29 -67 0
1 2 80 81 0
-28 -70 0
-29 -71 0
3 4 11 12 0
-28 -121 0
-29 -122 0
-30 -42 0
-31 -43 0
9 10 111 112 0
-30 -90 0
-31 -91 0
34 35 92 93 0
-32 -59 0
-33 -60 0
32 33 59 60 0
-32 -70 0
-33 -71 0
34 35 48 49 0
-32 -98 0
-33 -99 0
34 35 121 122 0
-32 -103 0
-33 -104 0
103 104 111 112 0
-32 -125 0
-33 -126 0
19 20 78 79 0
16 50 51 -80 0
34 35 38 39 0
-34 -38 0
-35 -39 0
44 45 50 51 0
-34 -48 0
-35 -49 0
-34 -92 0
-35 -93 0
21 22 38 39 0
-34 -98 0
-35 -99 0
-34 -105 0
-35 -106 0
36 37 55 56 0
-34 -121 0
-35 -122 0
96 97 125 126 0
-36 -55 0
-37 -56 0
3 4 74 75 0
-36 -82 0
-37 -83 0
-36 -113 0
-37 -114 0
-38 -42 0
-39 -43 0
40 41 48 49 0
-38 -96 0
-39 -97 0
28 29 40 41 0
-38 -105 0
-39 -106 0
-39 -115 0
40 41 46 47 0
-40 -46 0
-41 -47 0
-40 -48 0
-41 -49 0
16 80 81 -90 0
1 2 46 47 0
-40 -111 0
-41 -112 0
82 83 100 101 0
-42 -96 0
-43 -97 0
103 104 109 110 0
-42 -100 0
-43 -101 0
15 -86 96 97 0
-43 -102 0
68 69 76 77 0
-44 -50 0
-45 -51 0
24 25 90 91 0
-44 -72 0
-45 -73 0
-44 -82 0
-45 -83 0
17 18 30 31 0
-44 -109 0
-45 -110 0
59 60 80 81 0
7 8 103 104 0
-46 -55 0
-47 -56 0
52 53 92 93 0
-46 -68 0
-47 -69 0
52 53 88 89 0
-46 -94 0
-47 -95 0
55 56 111 112 0
-48 -76 0
-49 -77 0
15 -74 96 97 0
-49 -102 0
44 45 109 110 0
109 110 117 118 0
-60 65 -84 116 0
-51 -54 0
30 31 42 43 0
-50 -82 0
-51 -83 0
57 58 123 124 0
-52 -55 0
-53 -56 0
-52 -88 0
-53 -89 0
26 27 117 118 0
-52 -92 0
-53 -93 0
57 58 117 118 0
-52 -94 0
-53 -95 0
9 10 57 58 0
-52 -103 0
-53 -104 0
-21 65 -101 116 0
-54 -75 0
-21 -60 65 116 0
-54 -85 0
38 39 105 106 0
68 69 119 120 0
55 56 72 73 0
-55 -72 0
-56 -73 0
63 64 103 104 0
-55 -92 0
-56 -93 0
5 6 72 73 0
-55 -105 0
-56 -106 0
44 45 72 73 0
-55 -111 0
-56 -112 0
103 104 121 122 0
-57 -76 0
-58 -77 0
11 12 113 114 0
-57 -107 0
-58 -108 0
70 71 123 124 0
-57 -117 0
-58 -118 0
86 87 105 106 0
-57 -121 0
-58 -122 0
13 14 61 62 0
-57 -123 0
-58 -124 0
57 58 121 122 0
-59 -61 0
-60 -62 0
-60 65 100 101 0
-59 -65 0
-17 38 39 115 0
46 47 68 69 0
-59 -74 0
-60 -75 0
13 14 68 69 0
-59 -80 0
-60 -81 0
26 27 92 93 0
-59 -90 0
-60 -91 0
-1 23 98 99 0
-63 -66 0
-64 -67 0
26 27 48 49 0
-63 -103 0
-64 -104 0
17 18 21 22 0
-63 -111 0
-64 -112 0
-65 -100 0
17 18 -72 115 0
57 58 107 108 0
42 43 102 -117 0
17 18 -38 115 0
63 64 111 112 0
-66 -92 0
-67 -93 0
-68 -74 0
-69 -75 0
32 33 98 99 0
-68 -76 0
-69 -77 0
55 56 105 106 0
-68 -119 0
-69 -120 0
19 20 96 97 0
-70 -123 0
-71 -124 0
59 60 74 75 0
48 49 102 -117 0
-72 -94 0
-73 -95 0
74 75 80 81 0
-72 -105 0
-73 -106 0
-73 -115 0
-74 -80 0
-75 -81 0
24 25 50 51 0
-76 -82 0
-77 -83 0
11 12 24 25 0
-78 -94 0
-79 -95 0
23 -86 98 99 0
-78 -100 0
-79 -101 0
82 83 90 91 0
-78 -119 0
-79 -120 0
5 6 86 87 0
-80 -111 0
-81 -112 0
-42 102 117 118 0
-82 -90 0
-83 -91 0
98 99 100 101 0
-82 -98 0
-83 -99 0
52 53 103 104 0
-82 -100 0
-83 -101 0
7 8 40 41 0
-50 54 74 75 0
-85 -116 0
-86 -94 0
-87 -95 0
109 110 123 124 0
-86 -105 0
-87 -106 0
96 97 113 114 0
-88 -98 0
-89 -99 0
16 -50 80 81 0
-88 -125 0
-89 -126 0
68 69 74 75 0
-42 48 49 102 0
34 35 98 99 0
-94 -105 0
-95 -106 0
32 33 103 104 0
-96 -100 0
-97 -101 0
-96 -107 0
-97 -108 0
78 79 119 120 0
-96 -113 0
-97 -114 0
46 47 55 56 0
-96 -125 0
-97 -126 0
100 101 125 126 0
-98 -100 0
-99 -101 0
55 56 92 93 0
-100 -125 0
-101 -126 0
-102 -118 0
-103 -109 0
-104 -110 0
94 95 105 106 0
-103 -111 0
-104 -112 0
52 53 94 95 0
-103 -121 0
-104 -122 0
32 33 125 126 0
-105 -109 0
-106 -110 0
17 18 61 62 0
72 73 94 95 0
15 -74 86 87 0
9 10 98 99 0
-107 -119 0
-108 -120 0
-109 -117 0
-110 -118 0
15 74 75 -96 0
-109 -123 0
-110 -124 0
59 60 61 62 0
-119 -123 0
-120 -124 0
